(set-info :smt-lib-version 2.6)
(set-logic NIA)
(set-info
  :source |
 Generated by PSyCO 0.1
 More info in N. P. Lopes and J. Monteiro. Weakest Precondition Synthesis for
 Compiler Optimizations, VMCAI'14.
|)
(set-info :category "industrial")
(set-info :status sat)
(declare-fun W_S1_V1 () Bool)
(declare-fun W_S1_V3 () Bool)
(declare-fun W_S1_V2 () Bool)
(declare-fun W_S1_V4 () Bool)
(declare-fun W_S1_V7 () Bool)
(declare-fun R_S1_V1 () Bool)
(declare-fun R_S1_V3 () Bool)
(declare-fun R_S1_V2 () Bool)
(declare-fun R_S1_V4 () Bool)
(declare-fun R_S1_V7 () Bool)
(declare-fun R_S1_V6 () Bool)
(declare-fun DISJ_W_S1_R_S1 () Bool)
(declare-fun W_S1_V6 () Bool)
(assert
 (let
 (($x1101
   (forall
    ((V6_0 Int) (V7_0 Int) 
     (V4_0 Int) (V2_0 Int) 
     (V1_0 Int) (MW_S1_V6 Bool) 
     (MW_S1_V7 Bool) (MW_S1_V4 Bool) 
     (MW_S1_V2 Bool) (MW_S1_V3 Bool) 
     (MW_S1_V1 Bool) (S1_V4_!74 Int) 
     (S1_V4_!80 Int) (S1_V4_!86 Int) 
     (S1_V4_!92 Int) (S1_V7_!73 Int) 
     (S1_V7_!79 Int) (S1_V7_!85 Int) 
     (S1_V7_!91 Int) (S1_V6_!72 Int) 
     (S1_V6_!78 Int) (S1_V6_!84 Int) 
     (S1_V6_!90 Int) (S1_V1_!77 Int) 
     (S1_V1_!83 Int) (S1_V1_!89 Int) 
     (S1_V1_!95 Int) (S1_V3_!76 Int) 
     (S1_V3_!82 Int) (S1_V3_!88 Int) 
     (S1_V3_!94 Int) (S1_V2_!75 Int) 
     (S1_V2_!81 Int) (S1_V2_!87 Int) 
     (S1_V2_!93 Int))
    (let ((?x1159 (ite MW_S1_V1 S1_V1_!89 V1_0)))
    (let ((?x1207 (+ 1 ?x1159)))
    (let ((?x1262 (ite MW_S1_V1 S1_V1_!95 ?x1207)))
    (let ((?x1132 (ite MW_S1_V1 S1_V1_!77 V1_0)))
    (let ((?x1133 (+ 1 ?x1132)))
    (let ((?x1256 (ite MW_S1_V1 S1_V1_!83 ?x1133)))
    (let (($x1281 (= ?x1256 ?x1262)))
    (let
    (($x1280
      (= (ite MW_S1_V3 S1_V3_!82 (* ?x1133 (ite MW_S1_V4 S1_V4_!74 V4_0)))
      (ite MW_S1_V3 S1_V3_!94 (+ (* V1_0 V4_0) V4_0)))))
    (let ((?x1263 (ite MW_S1_V2 S1_V2_!93 V2_0)))
    (let ((?x1257 (ite MW_S1_V2 S1_V2_!81 V2_0)))
    (let (($x1277 (= ?x1257 ?x1263)))
    (let ((?x1275 (ite MW_S1_V4 S1_V4_!92 V4_0)))
    (let ((?x1274 (ite MW_S1_V4 S1_V4_!80 V4_0)))
    (let (($x1276 (= ?x1274 ?x1275)))
    (let ((?x1272 (ite MW_S1_V7 S1_V7_!91 V7_0)))
    (let ((?x1271 (ite MW_S1_V7 S1_V7_!79 V7_0)))
    (let (($x1273 (= ?x1271 ?x1272)))
    (let ((?x1269 (ite MW_S1_V6 S1_V6_!90 V6_0)))
    (let ((?x1268 (ite MW_S1_V6 S1_V6_!78 V6_0)))
    (let (($x1270 (= ?x1268 ?x1269)))
    (let ((?x1264 (+ (- 1) ?x1263)))
    (let (($x1265 (>= ?x1262 ?x1264)))
    (let ((?x1154 (ite MW_S1_V2 S1_V2_!87 V2_0)))
    (let (($x1260 (<= ?x1154 ?x1207)))
    (let (($x1261 (not $x1260)))
    (let ((?x1258 (+ (- 1) ?x1257)))
    (let (($x1259 (>= ?x1256 ?x1258)))
    (let ((?x1129 (ite MW_S1_V2 S1_V2_!75 V2_0)))
    (let (($x1254 (<= ?x1129 ?x1133)))
    (let (($x1255 (not $x1254)))
    (let (($x1252 (<= V2_0 V1_0)))
    (let (($x1253 (not $x1252)))
    (let (($x1266 (and $x1253 $x1255 $x1259 $x1261 $x1265)))
    (let (($x1267 (not $x1266)))
    (let (($x902 (not MW_S1_V1)))
    (let (($x903 (or $x902 W_S1_V1)))
    (let (($x904 (not MW_S1_V3)))
    (let (($x905 (or $x904 W_S1_V3)))
    (let (($x906 (not MW_S1_V2)))
    (let (($x907 (or $x906 W_S1_V2)))
    (let (($x908 (not MW_S1_V4)))
    (let (($x909 (or $x908 W_S1_V4)))
    (let (($x910 (not MW_S1_V7)))
    (let (($x911 (or $x910 W_S1_V7)))
    (let (($x915 (= S1_V2_!93 S1_V2_!75)))
    (let ((?x1138 (+ (- 1) V1_0)))
    (let (($x1160 (= ?x1159 ?x1138)))
    (let (($x108 (not R_S1_V1)))
    (let (($x1161 (or $x108 $x1160)))
    (let (($x1157 (= V4_0 0)))
    (let (($x106 (not R_S1_V3)))
    (let (($x1158 (or $x106 $x1157)))
    (let (($x1155 (= ?x1154 V2_0)))
    (let (($x104 (not R_S1_V2)))
    (let (($x1156 (or $x104 $x1155)))
    (let ((?x1151 (ite MW_S1_V4 S1_V4_!86 V4_0)))
    (let (($x1152 (= ?x1151 V4_0)))
    (let (($x102 (not R_S1_V4)))
    (let (($x1153 (or $x102 $x1152)))
    (let ((?x1148 (ite MW_S1_V7 S1_V7_!85 V7_0)))
    (let (($x1149 (= ?x1148 V7_0)))
    (let (($x100 (not R_S1_V7)))
    (let (($x1150 (or $x100 $x1149)))
    (let ((?x1145 (ite MW_S1_V6 S1_V6_!84 V6_0)))
    (let (($x1146 (= ?x1145 V6_0)))
    (let (($x98 (not R_S1_V6)))
    (let (($x1147 (or $x98 $x1146)))
    (let (($x1162 (and $x1147 $x1150 $x1153 $x1156 $x1158 $x1161)))
    (let (($x1163 (not $x1162)))
    (let (($x1249 (or $x1163 $x915)))
    (let (($x935 (= S1_V2_!87 S1_V2_!93)))
    (let (($x1208 (= V1_0 ?x1207)))
    (let (($x1209 (or $x108 $x1208)))
    (let (($x1205 (= 0 V4_0)))
    (let (($x1206 (or $x106 $x1205)))
    (let (($x1203 (= V2_0 ?x1154)))
    (let (($x1204 (or $x104 $x1203)))
    (let (($x1201 (= V4_0 ?x1151)))
    (let (($x1202 (or $x102 $x1201)))
    (let (($x1199 (= V7_0 ?x1148)))
    (let (($x1200 (or $x100 $x1199)))
    (let (($x1197 (= V6_0 ?x1145)))
    (let (($x1198 (or $x98 $x1197)))
    (let (($x1210 (and $x1198 $x1200 $x1202 $x1204 $x1206 $x1209)))
    (let (($x1211 (not $x1210)))
    (let (($x1248 (or $x1211 $x935)))
    (let (($x951 (= S1_V2_!87 S1_V2_!75)))
    (let (($x952 (= S1_V2_!81 S1_V2_!93)))
    (let (($x1232 (= ?x1132 ?x1159)))
    (let (($x1233 (or $x108 $x1232)))
    (let (($x1228 (= ?x1129 ?x1154)))
    (let (($x1229 (or $x104 $x1228)))
    (let ((?x1126 (ite MW_S1_V4 S1_V4_!74 V4_0)))
    (let (($x1226 (= ?x1126 ?x1151)))
    (let (($x1227 (or $x102 $x1226)))
    (let ((?x1123 (ite MW_S1_V7 S1_V7_!73 V7_0)))
    (let (($x1224 (= ?x1123 ?x1148)))
    (let (($x1225 (or $x100 $x1224)))
    (let ((?x1120 (ite MW_S1_V6 S1_V6_!72 V6_0)))
    (let (($x1222 (= ?x1120 ?x1145)))
    (let (($x1223 (or $x98 $x1222)))
    (let
    (($x1234
      (and $x1223 $x1225 $x1227 $x1229
      (or $x106 (= (* ?x1133 ?x1126) (+ (* V1_0 V4_0) V4_0))) $x1233)))
    (let (($x1235 (not $x1234)))
    (let (($x973 (= S1_V2_!81 S1_V2_!87)))
    (let (($x1139 (= ?x1132 ?x1138)))
    (let (($x1140 (or $x108 $x1139)))
    (let (($x1130 (= ?x1129 V2_0)))
    (let (($x1131 (or $x104 $x1130)))
    (let (($x1127 (= ?x1126 V4_0)))
    (let (($x1128 (or $x102 $x1127)))
    (let (($x1124 (= ?x1123 V7_0)))
    (let (($x1125 (or $x100 $x1124)))
    (let (($x1121 (= ?x1120 V6_0)))
    (let (($x1122 (or $x98 $x1121)))
    (let
    (($x1141
      (and $x1122 $x1125 $x1128 $x1131
      (or $x106 (= (* ?x1133 ?x1126) (* V1_0 V4_0))) $x1140)))
    (let (($x1142 (not $x1141)))
    (let (($x991 (= S1_V3_!94 S1_V3_!76)))
    (let (($x1244 (or $x1163 $x991)))
    (let (($x993 (= S1_V3_!88 S1_V3_!94)))
    (let (($x1243 (or $x1211 $x993)))
    (let (($x995 (= S1_V3_!88 S1_V3_!82)))
    (let (($x1192 (= V1_0 ?x1133)))
    (let (($x1193 (or $x108 $x1192)))
    (let (($x1188 (= V2_0 ?x1129)))
    (let (($x1189 (or $x104 $x1188)))
    (let (($x1186 (= V4_0 ?x1126)))
    (let (($x1187 (or $x102 $x1186)))
    (let (($x1184 (= V7_0 ?x1123)))
    (let (($x1185 (or $x100 $x1184)))
    (let (($x1182 (= V6_0 ?x1120)))
    (let (($x1183 (or $x98 $x1182)))
    (let
    (($x1194
      (and $x1183 $x1185 $x1187 $x1189
      (or $x106 (= (* V1_0 V4_0) (* ?x1133 ?x1126))) $x1193)))
    (let (($x1195 (not $x1194)))
    (let (($x1011 (= S1_V3_!88 S1_V3_!76)))
    (let (($x1016 (= S1_V1_!95 S1_V1_!77)))
    (let (($x1239 (or $x1163 $x1016)))
    (let (($x1018 (= S1_V1_!89 S1_V1_!95)))
    (let (($x1238 (or $x1211 $x1018)))
    (let (($x1022 (= S1_V1_!89 S1_V1_!77)))
    (let (($x1027 (= S1_V6_!90 S1_V6_!78)))
    (let (($x1176 (= ?x1159 ?x1132)))
    (let (($x1177 (or $x108 $x1176)))
    (let (($x1171 (= ?x1154 ?x1129)))
    (let (($x1172 (or $x104 $x1171)))
    (let (($x1169 (= ?x1151 ?x1126)))
    (let (($x1170 (or $x102 $x1169)))
    (let (($x1167 (= ?x1148 ?x1123)))
    (let (($x1168 (or $x100 $x1167)))
    (let (($x1165 (= ?x1145 ?x1120)))
    (let (($x1166 (or $x98 $x1165)))
    (let
    (($x1178
      (and $x1166 $x1168 $x1170 $x1172
      (or $x106 (= (+ (* V1_0 V4_0) V4_0) (* ?x1133 ?x1126))) $x1177)))
    (let (($x1179 (not $x1178)))
    (let (($x1044 (= S1_V6_!90 S1_V6_!72)))
    (let (($x1219 (or $x1163 $x1044)))
    (let (($x1046 (= S1_V6_!84 S1_V6_!90)))
    (let (($x1218 (or $x1211 $x1046)))
    (let (($x1050 (= S1_V6_!84 S1_V6_!72)))
    (let (($x1055 (= S1_V7_!85 S1_V7_!91)))
    (let (($x1214 (or $x1211 $x1055)))
    (let (($x1059 (= S1_V7_!85 S1_V7_!73)))
    (let (($x1060 (= S1_V7_!73 S1_V7_!91)))
    (let (($x1212 (or $x1211 $x1060)))
    (let (($x1064 (= S1_V4_!92 S1_V4_!86)))
    (let (($x1181 (or $x1163 $x1064)))
    (let (($x1068 (= S1_V4_!92 S1_V4_!74)))
    (let (($x1164 (or $x1163 $x1068)))
    (let (($x1070 (= S1_V4_!86 S1_V4_!74)))
    (let
    (($x1098
      (and (or $x1142 (= S1_V4_!80 S1_V4_!74))
      (or $x1142 (= S1_V4_!80 S1_V4_!86)) $x1070 $x1164
      (or $x1179 (= S1_V4_!92 S1_V4_!80)) $x1181
      (or $x1195 (= S1_V7_!73 S1_V7_!79)) $x1212 $x1059
      (or $x1195 (= S1_V7_!85 S1_V7_!79)) $x1214
      (or $x1179 (= S1_V7_!91 S1_V7_!79)) 
      (or $x1195 (= S1_V6_!72 S1_V6_!78)) $x1050
      (or $x1195 (= S1_V6_!84 S1_V6_!78)) $x1218 $x1219 
      (or $x1179 $x1027) (or $x1142 (= S1_V1_!83 S1_V1_!77))
      (or $x1235 (= S1_V1_!83 S1_V1_!95)) $x1022
      (or $x1195 (= S1_V1_!89 S1_V1_!83)) $x1238 $x1239
      (or $x1142 (= S1_V3_!82 S1_V3_!76)) 
      (or $x1235 (= S1_V3_!82 S1_V3_!94)) $x1011 
      (or $x1195 $x995) $x1243 $x1244 
      (or $x1142 (= S1_V2_!81 S1_V2_!75)) 
      (or $x1142 $x973) (or $x1235 $x952) $x951 $x1248 $x1249 $x911 $x909
      $x907 $x905 $x903)))
    (or (not $x1098) $x1267 (and $x1270 $x1273 $x1276 $x1277 $x1280 $x1281)))))))))))))))))))))))))))))))))))))))))))))))))))))))))))))))))))))))))))))))))))))))))))))))))))))))))))))))))))))))))))))))))))))))))))))))))))))))))))))))))))))))))))))
 (let (($x24 (and W_S1_V1 R_S1_V1)))
 (let (($x21 (and W_S1_V3 R_S1_V3)))
 (let (($x18 (and W_S1_V2 R_S1_V2)))
 (let (($x15 (and W_S1_V4 R_S1_V4)))
 (let (($x12 (and W_S1_V7 R_S1_V7)))
 (let (($x31 (or R_S1_V6 $x12 $x15 $x18 $x21 $x24)))
 (let (($x32 (not $x31)))
 (let (($x33 (= DISJ_W_S1_R_S1 $x32))) (and W_S1_V6 $x33 $x1101)))))))))))
(assert
 (let (($x522 (not W_S1_V1)))
 (let (($x490 (not W_S1_V4)))
 (let (($x1982 (and $x490 $x522))) (not $x1982)))))
(check-sat)
(exit)

